(declare-const v0 Bool)
(declare-const v1 Bool)
(declare-const v2 Bool)
(declare-const v3 Bool)
(declare-const v4 Bool)
(assert (edge true (or v1 (not v2))))
(assert (edge true v2))
(assert (edge v1 (or v2 (not v1))))
(assert (edge (not v2) true))
(assert (edge (not v1) (or (not v1) v2)))
(assert (edge (or v4 (not v1)) (or v0 v4)))
(assert (edge (or v1 (not v0)) v4))
(assert (edge (or v1 v4) (or v0 (not v1))))
(assert (edge (or (not v1) v2) (or (not v4) (not v2))))
(assert (edge (or v2 v4) (or v0 v4 (not v2))))
(assert (edge v0 (or (not v2) (not v3))))
(assert (edge (or (not v1) (not v2)) (or v0 v2)))
(assert (edge (or v1 v4) (or v0 (not v1))))
(assert (edge (or v0 (not v3)) (or v0 v4 (not v2))))
(assert (edge true (not v4)))
(assert (edge (or (not v3) (not v4)) (or v4 (not v2))))
(assert (edge (or v0 v4 (not v2)) (or v4 (not v0))))
(assert (edge (or v2 (not v3) (not v4)) (or v0 v2 v3)))
(assert (edge (or (not v4) (not v2)) (not v3)))
(assert (edge true (not v0)))
(assert (not (edge (or (not v1) (not v0) (not v2)) true)))